60 60
70 7 1
95 12 1
95 36 1
99 49 1
86 43 1
87 39 1
80 28 1
42 87 1
15 41 1
87 27 1
11 32 1
99 25 1
73 1 1
43 27 1
74 48 1
76 31 1
78 22 1
76 39 1
84 25 1
96 49 1
92 5 1
66 12 1
67 13 1
90 28 1
79 50 1
99 47 1
93 14 1
92 19 1
74 6 1
69 44 1
92 26 1
66 22 1
77 24 1
75 51 1
48 100 1
85 36 1
88 4 1
70 22 1
20 90 1
15 73 1
73 45 1
66 4 1
68 32 1
14 100 1
100 48 1
69 47 1
100 41 1
83 48 1
66 13 1
22 67 1
70 12 1
97 59 1
75 39 1
100 19 1
83 44 1
87 32 1
92 27 1
93 48 1
69 38 1
84 16 1
100 100 
100 100 
100 100 
100 100 
100 100 
100 100 
100 100 
100 100 
100 100 
100 100 
100 100 
100 100 
100 100 
100 100 
100 100 
100 100 
100 100 
100 100 
100 100 
100 100 
100 100 
100 100 
100 100 
100 100 
100 100 
100 100 
100 100 
100 100 
100 100 
100 100 
100 100 
100 100 
100 100 
100 100 
100 100 
100 100 
100 100 
100 100 
100 100 
100 100 
100 100 
100 100 
100 100 
100 100 
100 100 
100 100 
100 100 
100 100 
100 100 
100 100 
100 100 
100 100 
100 100 
100 100 
100 100 
100 100 
100 100 
100 100 
100 100 
100 100 
